1405
20 28 44 27 35 29 88 10 92 30 76 56 61 87 81 96 72 70 65 46 24 17 91 79 62 32 64 15 43 12 42 40 47 78 57 49 75 63 7 39 36 86 71 8 50 38 85 69 13 21 25 59 22 11 5 58 89 82 73 90 16 37 23 1 93 3 2 98 66 19 60 31 33 97 95 14 6 52 67 26 4 9 48 53 68 77 84 83 45 18 99 74 34 54 94 51 55 80 41 
